1 -1 2 0
1 -3 -1 0
1 4 -5 0
1 -6 7 0
1 -8 -9 0
1 10 -11 0
1 12 11 0
1 -12 -13 0
1 -7 -14 0
1 -7 15 0
1 16 11 0
1 16 9 0
1 -17 16 0
1 -17 18 0
1 -19 -20 0
1 20 21 0
1 20 12 0
1 -22 -23 0
1 24 25 0
1 -26 -27 0
1 -26 -25 0
1 27 26 0
1 -28 29 0
1 28 -26 0
1 -25 -30 0
1 31 -27 0
1 31 -32 0
1 -33 -25 0
1 33 4 0
1 30 -34 0
1 -30 5 0
1 -30 25 0
1 -30 4 0
1 -35 -4 0
1 -29 36 0
1 -29 -37 0
1 -34 -38 0
1 39 -35 0
1 40 -41 0
1 40 -29 0
1 -42 -4 0
1 -38 17 0
1 -43 34 0
1 -43 -7 0
1 21 43 0
1 44 45 0
1 37 21 0
1 -37 -46 0
1 37 47 0
1 48 38 0
1 48 -49 0
1 36 -41 0
1 36 38 0
1 15 14 0
1 -15 44 0
1 46 -50 0
1 47 51 0
1 47 -52 0
1 53 -54 0
1 -51 -55 0
1 51 53 0
1 -51 -56 0
1 51 -15 0
1 -50 46 0
1 -50 56 0
1 -57 -43 0
1 57 -56 0
1 -58 -9 0
1 58 59 0
1 -60 61 0
1 -62 -59 0
1 62 63 0
1 61 -46 0
1 64 46 0
1 -64 -47 0
1 -65 -66 0
1 -65 67 0
1 65 68 0
1 67 56 0
1 -63 69 0
1 66 70 0
1 71 41 0
1 -71 72 0
1 71 -73 0
1 71 -74 0
1 -75 -76 0
1 -77 52 0
1 45 71 0
1 -45 -36 0
1 78 -79 0
1 80 -40 0
1 80 52 0
1 -55 -64 0
1 -55 81 0
1 -55 82 0
1 -83 79 0
1 84 83 0
1 -84 -85 0
